10J3M/DAT/10J3MUNL-7.dat
10 3
27.4725 27.4725
35.3822 35.3822
42.6485 42.6485
35.6546 35.6546
0.6446 0.6446
27.6508 27.6508
5.0453 5.0453
20.8874 20.8874
3.0882 3.0882
13.0293 13.0293
211.5034