10J3M/SOL/10J3MUNL-7.sol
solution status: optimal solution found
objective value:                     70.5011333333333
x#1#3                                               1 	(obj:0)
x#2#2                                               1 	(obj:0)
x#3#1                                               1 	(obj:0)
x#4#1                              0.0150237743984412 	(obj:0)
x#4#2                               0.984976225601559 	(obj:0)
x#5#1                                               1 	(obj:0)
x#6#3                                               1 	(obj:0)
x#7#1                                               1 	(obj:0)
x#8#1                                               1 	(obj:0)
x#9#1                               0.239513848412237 	(obj:0)
x#9#3                               0.760486151587765 	(obj:0)
x#10#3                                              1 	(obj:0)
z                                    70.5011333333333 	(obj:1)
